NAME : local_15
TYPE : ATSP
DIMENSION : 5
EDGE_WEIGHT_TYPE : EXPLICIT
EDGE_WEIGHT_FORMAT : FULL_MATRIX
EDGE_WEIGHT_SECTION
0 10000000 875 590 0 
0 0 797 10000000 10000000 
0 757 0 10000000 875 
0 10000000 10000000 0 590 
0 10000000 10000000 10000000 0 
EOF